4070
3389
3192
8207
7923
7830
8163
9744
9811
1029
1156
5178
3422
990
9974
4208
5493
9210
9281
4754
2858
4467
2866
9125
7188
5520
5384
8612
5600
3262
6998
4533
7069
3618
9968
2586
7999
4149
1475
1370
2858
7058
6977
10096
6566
6807
2474
4668
9669
1698
